c n orig vars 183
p cnf 315 627
233 0
184 -187 0
184 -132 0
-184 187 132 0
185 -192 0
185 -133 0
-185 192 133 0
186 -117 0
186 -193 0
-186 117 193 0
187 -99 0
187 -70 0
187 -69 0
187 -61 0
187 -67 0
187 -100 0
187 -59 0
-187 99 70 69 61 67 100 59 0
188 -98 0
188 -108 0
188 -58 0
188 -106 0
188 -57 0
188 -103 0
188 -38 0
-188 98 108 58 106 57 103 38 0
189 -190 0
189 -130 0
-189 190 130 0
190 -191 0
190 -131 0
-190 191 131 0
191 -112 0
191 -115 0
191 -55 0
191 -111 0
191 -54 0
191 -102 0
191 -37 0
-191 112 115 55 111 54 102 37 0
192 -98 0
192 -108 0
192 -107 0
192 -58 0
192 -105 0
192 -38 0
192 -56 0
-192 98 108 107 58 105 38 56 0
193 -303 0
193 -116 0
-193 303 116 0
194 -207 0
194 -210 0
-194 207 210 0
-195 198 0
-195 197 0
-195 194 0
195 -198 -197 -194 0
196 -214 0
196 -221 0
-196 214 221 0
197 -306 0
197 -219 0
-197 306 219 0
198 -315 0
198 -314 0
-198 315 314 0
-199 198 0
-199 197 0
-199 196 0
199 -198 -197 -196 0
200 -199 0
200 -195 0
200 -202 0
200 -201 0
-200 199 195 202 201 0
-201 197 0
-201 196 0
-201 194 0
201 -197 -196 -194 0
-202 198 0
-202 196 0
-202 194 0
202 -198 -196 -194 0
-203 205 0
-203 208 0
203 -205 -208 0
204 -292 0
204 -299 0
-204 292 299 0
205 -295 0
205 -292 0
-205 295 292 0
206 -128 0
206 -129 0
-206 128 129 0
-207 209 0
-207 212 0
207 -209 -212 0
208 -293 0
208 -294 0
-208 293 294 0
209 -211 0
209 -310 0
209 -254 0
-209 211 310 254 0
210 -184 0
210 -185 0
210 -186 0
-210 184 185 186 0
-211 255 0
-211 256 0
211 -255 -256 0
212 -292 0
212 -298 0
-212 292 298 0
213 -293 0
213 -294 0
-213 293 294 0
-214 222 0
-214 204 0
214 -222 -204 0
215 -152 0
215 -126 0
-215 152 126 0
216 -295 0
216 -292 0
-216 295 292 0
217 -294 0
217 -300 0
-217 294 300 0
-218 216 0
-218 213 0
218 -216 -213 0
219 -286 0
219 -287 0
219 -279 0
-219 286 287 279 0
220 -218 0
220 -310 0
220 -215 0
-220 218 310 215 0
221 -277 0
221 -276 0
221 -283 0
-221 277 276 283 0
222 -203 0
222 -310 0
222 -206 0
-222 203 310 206 0
223 -226 0
223 -32 0
223 -227 0
-223 226 32 227 0
224 -29 0
224 -30 0
-224 29 30 0
225 -296 0
225 -31 0
-225 296 31 0
226 -27 0
226 -28 0
-226 27 28 0
227 -305 0
227 -62 0
-227 305 62 0
228 -72 0
228 -71 0
228 -65 0
228 -43 0
228 -76 0
228 -138 0
228 -25 0
228 -141 0
228 -41 0
228 -39 0
228 -40 0
228 -51 0
228 -26 0
228 -135 0
228 -23 0
-228 72 71 65 43 76 138 25 141 41 39 40 51 26 135 23 0
229 -11 0
229 -14 0
229 -16 0
229 -15 0
229 -137 0
229 -143 0
229 -24 0
229 -142 0
229 -17 0
229 -122 0
229 -79 0
229 -78 0
229 -21 0
229 -34 0
229 -22 0
-229 11 14 16 15 137 143 24 142 17 122 79 78 21 34 22 0
230 -231 0
230 -232 0
-230 231 232 0
231 -247 0
231 -19 0
231 -246 0
-231 247 19 246 0
232 -245 0
232 -46 0
232 -244 0
-232 245 46 244 0
-233 200 0
233 -200 0
234 -103 0
234 -104 0
234 -105 0
234 -106 0
234 -107 0
234 -108 0
234 -98 0
-234 103 104 105 106 107 108 98 0
235 -99 0
235 -70 0
235 -69 0
235 -68 0
235 -67 0
235 -74 0
235 -73 0
-235 99 70 69 68 67 74 73 0
236 -9 0
236 -241 0
-236 9 241 0
237 -234 0
237 -10 0
-237 234 10 0
238 -243 0
238 -242 0
238 -290 0
238 -291 0
-238 243 242 290 291 0
239 -112 0
239 -115 0
239 -114 0
239 -111 0
239 -110 0
239 -101 0
239 -102 0
-239 112 115 114 111 110 101 102 0
240 -239 0
240 -1 0
-240 239 1 0
241 -240 0
241 -2 0
-241 240 2 0
242 -289 0
242 -165 0
-242 289 165 0
243 -288 0
243 -164 0
-243 288 164 0
244 -229 0
244 -47 0
-244 229 47 0
245 -45 0
245 -48 0
-245 45 48 0
246 -228 0
246 -18 0
-246 228 18 0
247 -20 0
247 -120 0
-247 20 120 0
248 -158 0
248 -159 0
-248 158 159 0
249 -272 0
249 -161 0
249 -273 0
-249 272 161 273 0
250 -248 0
250 -157 0
250 -253 0
-250 248 157 253 0
251 -250 0
251 -249 0
-251 250 249 0
252 -72 0
252 -71 0
252 -66 0
252 -65 0
252 -76 0
252 -139 0
252 -25 0
252 -141 0
252 -41 0
252 -42 0
252 -63 0
252 -52 0
252 -26 0
252 -134 0
252 -176 0
-252 72 71 66 65 76 139 25 141 41 42 63 52 26 134 176 0
253 -252 0
253 -160 0
-253 252 160 0
254 -118 0
254 -113 0
-254 118 113 0
255 -293 0
255 -294 0
-255 293 294 0
256 -295 0
256 -292 0
-256 295 292 0
257 -95 0
257 -97 0
257 -96 0
257 -92 0
257 -91 0
257 -94 0
-257 95 97 96 92 91 94 0
258 -259 0
258 -260 0
258 -261 0
-258 259 260 261 0
259 -93 0
259 -90 0
259 -89 0
-259 93 90 89 0
260 -4 0
260 -3 0
-260 4 3 0
261 -6 0
261 -262 0
-261 6 262 0
262 -5 0
262 -8 0
-262 5 8 0
263 -235 0
263 -7 0
-263 235 7 0
264 -72 0
264 -71 0
264 -66 0
264 -43 0
264 -76 0
264 -139 0
264 -138 0
264 -25 0
264 -44 0
264 -40 0
264 -63 0
264 -64 0
264 -140 0
264 -176 0
264 -23 0
-264 72 71 66 43 76 139 138 25 44 40 63 64 140 176 23 0
265 -88 0
265 -85 0
-265 88 85 0
266 -178 0
266 -183 0
-266 178 183 0
267 -264 0
267 -182 0
-267 264 182 0
268 -266 0
268 -179 0
268 -267 0
-268 266 179 267 0
269 -265 0
269 -87 0
269 -285 0
-269 265 87 285 0
270 -11 0
270 -14 0
270 -13 0
270 -16 0
270 -137 0
270 -136 0
270 -24 0
270 -142 0
270 -17 0
270 -123 0
270 -80 0
270 -83 0
270 -21 0
270 -35 0
270 -175 0
-270 11 14 13 16 137 136 24 142 17 123 80 83 21 35 175 0
271 -268 0
271 -269 0
-271 268 269 0
272 -162 0
272 -163 0
-272 162 163 0
273 -270 0
273 -177 0
-273 270 177 0
274 -112 0
274 -114 0
274 -55 0
274 -111 0
274 -54 0
274 -101 0
274 -53 0
-274 112 114 55 111 54 101 53 0
275 -274 0
275 -153 0
-275 274 153 0
276 -188 0
276 -124 0
-276 188 124 0
277 -282 0
277 -127 0
-277 282 127 0
278 -99 0
278 -69 0
278 -61 0
278 -68 0
278 -60 0
278 -74 0
278 -59 0
-278 99 69 61 68 60 74 59 0
279 -145 0
279 -280 0
-279 145 280 0
280 -275 0
280 -144 0
-280 275 144 0
281 -98 0
281 -107 0
281 -58 0
281 -106 0
281 -57 0
281 -104 0
281 -56 0
-281 98 107 58 106 57 104 56 0
282 -99 0
282 -70 0
282 -61 0
282 -68 0
282 -60 0
282 -73 0
282 -100 0
-282 99 70 61 68 60 73 100 0
283 -125 0
283 -189 0
-283 125 189 0
284 -11 0
284 -14 0
284 -13 0
284 -15 0
284 -137 0
284 -136 0
284 -143 0
284 -24 0
284 -121 0
284 -79 0
284 -80 0
284 -77 0
284 -33 0
284 -175 0
284 -22 0
-284 11 14 13 15 137 136 143 24 121 79 80 77 33 175 22 0
285 -284 0
285 -86 0
-285 284 86 0
286 -278 0
286 -147 0
-286 278 147 0
287 -281 0
287 -146 0
-287 281 146 0
288 -72 0
288 -71 0
288 -66 0
288 -65 0
288 -43 0
288 -44 0
288 -41 0
288 -42 0
288 -39 0
288 -40 0
288 -63 0
288 -64 0
288 -51 0
288 -52 0
288 -12 0
-288 72 71 66 65 43 44 41 42 39 40 63 64 51 52 12 0
289 -11 0
289 -14 0
289 -13 0
289 -16 0
289 -15 0
289 -121 0
289 -17 0
289 -123 0
289 -122 0
289 -79 0
289 -80 0
289 -77 0
289 -78 0
289 -83 0
289 -84 0
-289 11 14 13 16 15 121 17 123 122 79 80 77 78 83 84 0
290 -95 0
290 -257 0
290 -258 0
-290 95 257 258 0
291 -97 0
291 -257 0
291 -258 0
-291 97 257 258 0
292 -151 0
292 -150 0
-292 151 150 0
293 -149 0
293 -148 0
-293 149 148 0
294 -166 0
294 -167 0
-294 166 167 0
295 -172 0
295 -173 0
-295 172 173 0
296 -72 0
296 -66 0
296 -65 0
296 -43 0
296 -76 0
296 -139 0
296 -138 0
296 -141 0
296 -44 0
296 -42 0
296 -39 0
296 -140 0
296 -135 0
296 -134 0
296 -12 0
-296 72 66 65 43 76 139 138 141 44 42 39 140 135 134 12 0
297 -304 0
297 -223 0
-297 304 223 0
298 -271 0
298 -174 0
298 -181 0
298 -180 0
-298 271 174 181 180 0
299 -251 0
299 -154 0
299 -155 0
299 -156 0
-299 251 154 155 156 0
300 -230 0
300 -50 0
300 -49 0
300 -109 0
-300 230 50 49 109 0
301 -81 0
301 -82 0
301 -75 0
301 -297 0
-301 81 82 75 297 0
302 -112 0
302 -115 0
302 -114 0
302 -55 0
302 -110 0
302 -37 0
302 -53 0
-302 112 115 114 55 110 37 53 0
303 -302 0
303 -119 0
-303 302 119 0
304 -224 0
304 -36 0
304 -225 0
-304 224 36 225 0
305 -11 0
305 -13 0
305 -16 0
305 -15 0
305 -137 0
305 -136 0
305 -143 0
305 -142 0
305 -121 0
305 -123 0
305 -122 0
305 -33 0
305 -34 0
305 -35 0
305 -84 0
-305 11 13 16 15 137 136 143 142 121 123 122 33 34 35 84 0
-306 220 0
-306 217 0
306 -220 -217 0
307 -293 0
307 -294 0
-307 293 294 0
308 -295 0
308 -292 0
-308 295 292 0
309 -168 0
309 -169 0
-309 168 169 0
310 -170 0
310 -238 0
310 -171 0
-310 170 238 171 0
-311 308 0
-311 307 0
311 -308 -307 0
312 -294 0
312 -301 0
-312 294 301 0
313 -311 0
313 -310 0
313 -309 0
-313 311 310 309 0
314 -263 0
314 -237 0
314 -236 0
-314 263 237 236 0
-315 313 0
-315 312 0
315 -313 -312 0
